150 10
3
22 91 57 21 97 61 41 99 41 23 52 23 72 41 60 47 15 36 65 94 42 0 83 6 93 67 31 29 16 67 26 6 11 81 55 43 67 20 91 92 14 14 80 99 63 43 27 87 20 23 34 32 65 22 21 57 68 45 39 24 86 17 52 90 8 5 97 86 82 10 62 29 11 30 71 58 94 42 85 71 25 54 83 25 45 3 84 83 37 33 60 89 7 60 37 84 98 16 45 39 33 97 65 73 87 68 24 6 97 60 88 61 59 74 29 28 24 3 82 21 6 84 21 27 26 89 64 3 53 37 7 80 75 11 2 54 5 17 78 5 78 81 30 98 3 0 93 44 44 61
727 861 727 762 839 874 934 1172 557 961
0 0 0 0 0 0 0 0 0 0 0 0 0 29 0 0 0 0 84 0 0 0 0 0 0 0 0 0 0 22 0 0 0 0 0 0 0 83 0 0 0 0 0 73 0 96 0 0 0 0 0 0 0 0 0 0 94 0 0 0 51 0 0 0 0 0 0 0 0 0 0 0 0 81 0 0 0 92 0 0 0 0 0 0 0 20 0 0 0 0 0 7 0 0 0 0 0 0 0 0 0 0 4 0 0 0 26 0 0 0 0 0 0 0 0 0 0 0 0 0 0 0 0 0 0 70 0 0 0 0 0 0 0 0 0 73 0 0 0 0 0 0 13 0 0 0 0 89 0 0
0 81 0 0 89 0 0 0 0 23 0 4 49 0 0 54 0 0 0 0 23 0 0 0 0 0 0 0 0 54 0 0 0 0 20 0 0 0 0 0 0 0 0 0 0 0 0 0 0 0 0 0 0 0 0 83 0 0 0 98 0 43 0 0 0 0 0 0 0 0 36 0 0 0 0 0 0 0 0 28 0 0 96 0 0 0 0 0 0 0 0 0 0 67 0 0 0 0 0 0 0 0 0 0 0 0 0 7 0 0 0 0 0 0 51 0 0 74 0 0 96 0 26 0 32 70 0 0 0 0 0 0 0 0 0 0 0 0 0 0 0 0 0 0 0 0 0 0 0 0
0 0 0 55 0 0 0 79 0 0 0 0 0 0 0 0 0 0 0 0 0 94 0 45 0 0 0 0 0 0 0 0 0 0 0 0 0 0 0 0 0 0 0 0 0 0 0 0 0 0 0 0 0 0 0 0 69 0 0 0 0 0 0 0 0 0 0 0 0 0 0 0 0 0 0 0 0 0 21 0 81 35 0 0 0 0 0 16 25 0 0 0 0 0 0 0 0 78 0 0 0 0 5 0 0 0 0 0 57 0 0 3 0 0 0 58 4 17 0 0 0 0 0 0 0 36 0 49 0 0 0 18 0 0 0 53 0 0 0 0 0 0 0 0 0 0 46 52 0 0
0 0 4 7 0 0 0 37 0 0 0 0 71 0 0 0 0 0 0 0 20 0 0 0 0 0 0 48 0 0 0 0 90 0 0 0 0 37 39 0 0 0 99 0 0 0 0 0 0 0 0 0 0 0 39 0 0 0 0 0 0 0 54 0 0 0 6 91 0 0 0 0 0 0 0 0 0 0 0 0 0 0 0 0 5 0 0 0 0 0 0 0 0 0 0 0 0 29 0 0 0 0 0 43 79 0 0 0 0 0 0 0 0 0 92 85 0 0 0 0 0 0 0 0 0 0 0 0 0 32 0 0 0 0 0 0 0 22 19 0 0 0 0 0 0 0 0 0 7 0
0 0 0 0 0 0 0 0 67 16 0 0 0 0 0 0 0 57 0 0 0 0 0 4 16 0 0 23 0 0 0 98 30 0 0 0 0 0 0 0 0 0 0 0 35 0 0 0 0 0 0 0 0 0 81 0 0 0 0 80 0 0 0 0 0 0 0 0 86 0 0 41 0 60 0 0 0 59 0 0 0 0 0 0 0 0 0 0 0 23 0 0 0 0 0 26 89 0 0 0 79 0 0 0 0 0 0 0 0 11 33 0 0 48 0 0 0 0 0 0 2 0 0 0 0 0 0 0 36 0 5 0 0 0 0 0 0 0 0 0 0 0 0 83 0 0 0 0 0 0
0 0 98 0 0 0 0 0 0 0 0 68 0 0 0 0 0 0 0 0 0 0 0 0 0 0 0 51 0 0 0 0 0 46 0 0 0 0 0 0 0 0 0 0 0 0 0 0 0 0 0 0 68 0 0 93 0 0 0 0 0 0 0 0 78 0 0 11 0 0 63 0 0 18 0 28 0 0 0 0 0 0 0 92 51 0 55 0 0 0 0 0 58 0 0 0 0 0 0 0 0 0 0 16 0 0 33 0 44 0 0 0 0 0 0 68 0 0 0 0 0 0 0 0 0 0 0 0 0 0 0 0 0 0 1 0 0 0 0 57 22 0 0 28 71 27 0 0 58 0
0 0 0 78 0 0 0 0 44 0 0 0 0 0 0 0 95 0 0 0 0 49 0 0 0 80 0 0 66 47 0 0 0 0 0 0 0 0 0 0 0 0 0 0 0 0 0 0 0 0 0 0 0 0 0 0 0 0 0 0 0 0 0 0 0 0 0 0 0 21 0 0 0 0 0 17 0 0 0 0 71 80 0 0 0 0 0 32 81 0 0 0 0 0 0 95 0 56 0 0 0 0 0 0 0 0 72 0 0 0 32 0 0 0 0 0 0 92 0 0 47 61 0 0 0 0 0 0 0 0 0 94 0 0 0 0 0 0 0 0 0 0 0 0 0 0 30 0 0 44
0 0 0 0 0 81 67 0 27 0 0 0 0 0 0 0 0 0 0 61 58 0 0 0 0 13 0 2 66 19 76 0 0 0 0 0 0 12 64 0 0 0 0 0 0 0 0 0 0 0 0 0 0 71 53 0 0 0 0 0 53 0 0 82 0 0 0 0 0 16 0 0 99 0 0 0 3 81 0 38 42 0 0 0 0 0 0 0 0 0 0 7 0 0 0 0 0 0 0 0 71 0 0 0 0 0 52 90 0 0 0 0 0 0 0 0 83 0 0 0 45 0 0 0 0 0 0 0 0 0 0 0 0 0 0 0 0 0 0 0 99 89 0 0 99 0 0 0 0 0
0 0 27 0 0 0 0 0 0 43 0 0 83 0 0 0 0 0 0 0 0 0 0 0 0 0 0 0 0 0 0 0 0 0 0 0 15 0 29 35 0 0 0 0 56 0 0 0 5 0 0 0 0 0 0 0 0 0 0 5 0 0 0 0 0 0 0 0 0 0 0 0 0 0 0 0 0 5 0 0 0 0 0 0 0 0 30 0 14 0 56 0 7 0 0 0 0 87 0 0 0 0 0 0 0 0 26 0 0 0 0 0 0 0 0 0 0 0 0 73 48 0 0 0 0 0 0 56 0 0 0 0 0 0 0 0 0 0 0 0 0 22 0 0 0 0 0 0 89 0
0 0 0 0 0 0 0 0 0 18 0 0 0 31 97 0 12 0 0 71 94 0 0 0 0 0 0 0 0 0 0 0 0 0 0 0 0 0 0 0 0 0 4 0 0 0 78 0 0 0 0 0 0 0 0 55 0 0 0 95 0 0 0 86 0 46 0 0 0 0 0 83 0 28 59 0 0 89 0 0 0 0 0 0 17 0 0 0 98 0 48 86 0 0 22 0 0 0 0 0 0 0 0 0 0 0 0 0 0 0 0 81 0 0 0 0 0 0 0 0 0 0 0 0 0 0 0 0 5 0 0 0 8 0 0 0 0 0 0 0 0 0 0 0 0 0 5 0 0 0
0 0 0 0 0 0 0 0 0 0 0 0 0 8 0 0 0 0 59 0 0 0 0 0 0 0 0 0 0 14 0 0 0 0 0 0 0 15 0 0 0 0 0 4 0 22 0 0 0 0 0 0 0 0 0 0 52 0 0 0 2 0 0 0 0 0 0 0 0 0 0 0 0 71 0 0 0 72 0 0 0 0 0 0 0 5 0 0 0 0 0 1 0 0 0 0 0 0 0 0 0 0 1 0 0 0 22 0 0 0 0 0 0 0 0 0 0 0 0 0 0 0 0 0 0 19 0 0 0 0 0 0 0 0 0 62 0 0 0 0 0 0 9 0 0 0 0 11 0 0
0 26 0 0 82 0 0 0 0 8 0 3 1 0 0 35 0 0 0 0 18 0 0 0 0 0 0 0 0 49 0 0 0 0 14 0 0 0 0 0 0 0 0 0 0 0 0 0 0 0 0 0 0 0 0 55 0 0 0 10 0 10 0 0 0 0 0 0 0 0 24 0 0 0 0 0 0 0 0 11 0 0 91 0 0 0 0 0 0 0 0 0 0 13 0 0 0 0 0 0 0 0 0 0 0 0 0 6 0 0 0 0 0 0 5 0 0 23 0 0 42 0 7 0 17 56 0 0 0 0 0 0 0 0 0 0 0 0 0 0 0 0 0 0 0 0 0 0 0 0
0 0 0 43 0 0 0 24 0 0 0 0 0 0 0 0 0 0 0 0 0 81 0 21 0 0 0 0 0 0 0 0 0 0 0 0 0 0 0 0 0 0 0 0 0 0 0 0 0 0 0 0 0 0 0 0 18 0 0 0 0 0 0 0 0 0 0 0 0 0 0 0 0 0 0 0 0 0 5 0 49 31 0 0 0 0 0 7 11 0 0 0 0 0 0 0 0 56 0 0 0 0 0 0 0 0 0 0 1 0 0 1 0 0 0 53 1 4 0 0 0 0 0 0 0 25 0 12 0 0 0 8 0 0 0 50 0 0 0 0 0 0 0 0 0 0 12 24 0 0
0 0 3 3 0 0 0 10 0 0 0 0 7 0 0 0 0 0 0 0 14 0 0 0 0 0 0 8 0 0 0 0 46 0 0 0 0 35 35 0 0 0 81 0 0 0 0 0 0 0 0 0 0 0 23 0 0 0 0 0 0 0 53 0 0 0 5 12 0 0 0 0 0 0 0 0 0 0 0 0 0 0 0 0 2 0 0 0 0 0 0 0 0 0 0 0 0 15 0 0 0 0 0 39 19 0 0 0 0 0 0 0 0 0 50 65 0 0 0 0 0 0 0 0 0 0 0 0 0 11 0 0 0 0 0 0 0 18 14 0 0 0 0 0 0 0 0 0 3 0
0 0 0 0 0 0 0 0 56 8 0 0 0 0 0 0 0 50 0 0 0 0 0 2 10 0 0 11 0 0 0 11 8 0 0 0 0 0 0 0 0 0 0 0 12 0 0 0 0 0 0 0 0 0 74 0 0 0 0 48 0 0 0 0 0 0 0 0 74 0 0 11 0 29 0 0 0 34 0 0 0 0 0 0 0 0 0 0 0 10 0 0 0 0 0 12 39 0 0 0 10 0 0 0 0 0 0 0 0 2 11 0 0 46 0 0 0 0 0 0 1 0 0 0 0 0 0 0 27 0 3 0 0 0 0 0 0 0 0 0 0 0 0 16 0 0 0 0 0 0
0 0 63 0 0 0 0 0 0 0 0 64 0 0 0 0 0 0 0 0 0 0 0 0 0 0 0 13 0 0 0 0 0 38 0 0 0 0 0 0 0 0 0 0 0 0 0 0 0 0 0 0 4 0 0 3 0 0 0 0 0 0 0 0 19 0 0 1 0 0 16 0 0 7 0 24 0 0 0 0 0 0 0 11 22 0 27 0 0 0 0 0 2 0 0 0 0 0 0 0 0 0 0 8 0 0 8 0 25 0 0 0 0 0 0 38 0 0 0 0 0 0 0 0 0 0 0 0 0 0 0 0 0 0 0 0 0 0 0 52 1 0 0 24 63 21 0 0 4 0
0 0 0 31 0 0 0 0 11 0 0 0 0 0 0 0 37 0 0 0 0 7 0 0 0 22 0 0 42 31 0 0 0 0 0 0 0 0 0 0 0 0 0 0 0 0 0 0 0 0 0 0 0 0 0 0 0 0 0 0 0 0 0 0 0 0 0 0 0 9 0 0 0 0 0 5 0 0 0 0 45 51 0 0 0 0 0 27 44 0 0 0 0 0 0 26 0 53 0 0 0 0 0 0 0 0 43 0 0 0 25 0 0 0 0 0 0 32 0 0 30 14 0 0 0 0 0 0 0 0 0 71 0 0 0 0 0 0 0 0 0 0 0 0 0 0 0 0 0 1
0 0 0 0 0 47 43 0 26 0 0 0 0 0 0 0 0 0 0 15 4 0 0 0 0 10 0 1 39 10 0 0 0 0 0 0 0 1 58 0 0 0 0 0 0 0 0 0 0 0 0 0 0 12 27 0 0 0 0 0 43 0 0 54 0 0 0 0 0 13 0 0 47 0 0 0 2 31 0 34 34 0 0 0 0 0 0 0 0 0 0 2 0 0 0 0 0 0 0 0 68 0 0 0 0 0 36 83 0 0 0 0 0 0 0 0 44 0 0 0 17 0 0 0 0 0 0 0 0 0 0 0 0 0 0 0 0 0 0 0 70 6 0 0 48 0 0 0 0 0
0 0 9 0 0 0 0 0 0 28 0 0 77 0 0 0 0 0 0 0 0 0 0 0 0 0 0 0 0 0 0 0 0 0 0 0 8 0 9 21 0 0 0 0 2 0 0 0 1 0 0 0 0 0 0 0 0 0 0 0 0 0 0 0 0 0 0 0 0 0 0 0 0 0 0 0 0 4 0 0 0 0 0 0 0 0 28 0 4 0 0 0 2 0 0 0 0 13 0 0 0 0 0 0 0 0 11 0 0 0 0 0 0 0 0 0 0 0 0 2 37 0 0 0 0 0 0 7 0 0 0 0 0 0 0 0 0 0 0 0 0 17 0 0 0 0 0 0 3 0
0 0 0 0 0 0 0 0 0 15 0 0 0 2 80 0 3 0 0 50 61 0 0 0 0 0 0 0 0 0 0 0 0 0 0 0 0 0 0 0 0 0 2 0 0 0 28 0 0 0 0 0 0 0 0 35 0 0 0 53 0 0 0 26 0 39 0 0 0 0 0 42 0 14 5 0 0 28 0 0 0 0 0 0 11 0 0 0 83 0 10 74 0 0 9 0 0 0 0 0 0 0 0 0 0 0 0 0 0 0 0 75 0 0 0 0 0 0 0 0 0 0 0 0 0 0 0 0 0 0 0 0 6 0 0 0 0 0 0 0 0 0 0 0 0 0 3 0 0 0
